Maximize

29.5 b0 + 45.5 b1 + 57.0 b2 + 31.0 b3 + 15.5 b4 + 64.0 b5.v0 + 64.0 b5.v1 + 15.5 b6 + 20.5 b7 + 19.5 b8.v0 + 19.5 b8.v1 + 51.5 b9 + 1 b10 + 20.5 b11 + 1 b12 + 65.0 b13.v0 + 65.0 b13.v1 + 65.0 b13.v2 + 12.5 b14.v0 + 14.5 b14.v1 + 8 b15 + 464.5 b16 + 156.0 b17 + 51.5 b18 + 7 b19.v0 + 5 b19.v1 + 368.0 b20 + 18.5 b21 + 10 b22 + 18.5 b23 + 47.5 b24


Subject to

\ === tcfg constraints ===
dSta_0 = 1
b0 - dSta_0 = 0
b0 - d0_1 = 0
b1 - d0_1 = 0
b1 - d1_2 = 0
b2 - d1_2 = 0
b2 - d2_5 - d2_3 = 0
b3 - d2_3 = 0
b3 - d3_13 - d3_4 = 0
b4 - d3_4 = 0
b4 - d4_6 - d4_5 = 0
b5 - d2_5 - d4_5 = 0
b6 - d4_6 = 0
b6 - d6_8 - d6_7 = 0
b7 - d6_7 = 0
b7 - d7_24 - d7_8 = 0
b8 - d6_8 - d7_8 = 0
b8 - d8_13 - d8_9 = 0
b9 - d8_9 = 0
b9 - d9_14 - d9_10 = 0
b10 - d9_10 = 0
b10 - d10_11 = 0
b11 - d10_11 = 0
b11 - d11_23 - d11_12 = 0
b12 - d11_12 = 0
b12 - d12_13 = 0
b13 - d8_13 - d12_13 - d3_13 = 0
b13 - d13_14 = 0
b14 - d13_14 - d9_14 = 0
b14 - d14_15 = 0
b15 - d14_15 = 0
b15 - d15_16 = 0
b16 - d15_16 = 0
b16 - d16_17 = 0
b17 - d16_17 = 0
b17 - d17_19 - d17_18 = 0
b18 - d17_18 = 0
b18 - d18_19 = 0
b19 - d17_19 - d18_19 = 0
b19 - d19_20 = 0
b20 - d19_20 = 0
b20 - d20_21 = 0
b21 - d20_21 = 0
b21 - d21_22 = 0
b22 - d21_22 = 0
b23 - d11_23 = 0
b24 - d7_24 = 0


\ === header constraints ===



\ === context constraints ===
b5 - b5.v0 - b5.v1 = 0
b5.v0 - d2_5 = 0
b5.v1 - d4_5 = 0
b8 - b8.v0 - b8.v1 = 0
b8.v0 - d6_8 = 0
b8.v1 - d7_8 = 0
b13 - b13.v0 - b13.v1 - b13.v2 = 0
b13.v0 - d8_13 = 0
b13.v1 - d12_13 = 0
b13.v2 - d3_13 = 0
b14 - b14.v0 - b14.v1 = 0
b14.v0 - d13_14 = 0
b14.v1 - d9_14 = 0
b19 - b19.v0 - b19.v1 = 0
b19.v0 - d17_19 = 0
b19.v1 - d18_19 = 0


\ === inst cache constraints ===



\ === data cache constraints ===



Generals


b0
b1
b2
b3
b4
b5
b5.v0
b5.v1
b6
b7
b8
b8.v0
b8.v1
b9
b10
b11
b12
b13
b13.v0
b13.v1
b13.v2
b14
b14.v0
b14.v1
b15
b16
b17
b18
b19
b19.v0
b19.v1
b20
b21
b22
b23
b24
d0_1
d1_2
d2_3
d2_5
d3_4
d3_13
d4_5
d4_6
d6_7
d6_8
d7_8
d7_24
d8_9
d8_13
d9_10
d9_14
d10_11
d11_12
d11_23
d12_13
d13_14
d14_15
d15_16
d16_17
d17_18
d17_19
d18_19
d19_20
d20_21
d21_22
dSta_0


End
\ total cons: 79    total vars: 67
